/*********************************************
 * OPL 22.1.1.0 Data
 * Author: Francisco Cerqueira
 * Creation Date: 17/04/2023 at 12:24:40
 *********************************************/

 setup_costs = [5000, 6000, 10000, 6000];
 processing_costs = [0.6, 0.5, 0.4, 0.3];
 capacities = [20000, 15000, 40000, 25000];